MATILDA_Graphs/g0002.col
c File: data_files/evolved_graphs/g0002.col
c
c Auto generated graph
c
p edge 100 2908
e 1 3
e 1 4
e 1 5
e 1 6
e 1 7
e 1 9
e 1 10
e 1 11
e 1 12
e 1 13
e 1 14
e 1 15
e 1 16
e 1 19
e 1 20
e 1 22
e 1 23
e 1 24
e 1 25
e 1 27
e 1 28
e 1 29
e 1 30
e 1 31
e 1 33
e 1 34
e 1 35
e 1 36
e 1 37
e 1 38
e 1 39
e 1 40
e 1 41
e 1 42
e 1 43
e 1 44
e 1 45
e 1 46
e 1 47
e 1 48
e 1 49
e 1 50
e 1 52
e 1 53
e 1 54
e 1 56
e 1 57
e 1 58
e 1 59
e 1 69
e 1 77
e 1 80
e 1 84
e 1 89
e 1 91
e 1 97
e 2 3
e 2 4
e 2 6
e 2 7
e 2 8
e 2 9
e 2 10
e 2 13
e 2 15
e 2 16
e 2 17
e 2 18
e 2 21
e 2 22
e 2 23
e 2 24
e 2 25
e 2 26
e 2 27
e 2 28
e 2 29
e 2 30
e 2 32
e 2 33
e 2 34
e 2 35
e 2 36
e 2 37
e 2 38
e 2 39
e 2 40
e 2 41
e 2 44
e 2 45
e 2 46
e 2 47
e 2 48
e 2 49
e 2 50
e 2 51
e 2 52
e 2 53
e 2 54
e 2 55
e 2 56
e 2 57
e 2 58
e 2 59
e 2 62
e 2 64
e 2 73
e 2 74
e 2 75
e 2 79
e 2 92
e 2 93
e 2 94
e 3 4
e 3 5
e 3 7
e 3 8
e 3 9
e 3 10
e 3 11
e 3 12
e 3 13
e 3 14
e 3 15
e 3 16
e 3 17
e 3 18
e 3 20
e 3 21
e 3 22
e 3 23
e 3 24
e 3 25
e 3 26
e 3 27
e 3 28
e 3 29
e 3 30
e 3 31
e 3 32
e 3 34
e 3 35
e 3 36
e 3 37
e 3 38
e 3 39
e 3 40
e 3 41
e 3 43
e 3 45
e 3 46
e 3 48
e 3 49
e 3 50
e 3 51
e 3 52
e 3 53
e 3 54
e 3 55
e 3 57
e 3 58
e 3 59
e 3 60
e 3 61
e 3 66
e 3 69
e 3 71
e 3 87
e 3 89
e 3 90
e 3 93
e 3 94
e 3 95
e 3 96
e 3 97
e 3 99
e 4 5
e 4 6
e 4 7
e 4 8
e 4 9
e 4 10
e 4 11
e 4 12
e 4 13
e 4 14
e 4 15
e 4 16
e 4 17
e 4 18
e 4 19
e 4 20
e 4 21
e 4 22
e 4 23
e 4 24
e 4 25
e 4 26
e 4 27
e 4 28
e 4 29
e 4 30
e 4 31
e 4 32
e 4 33
e 4 34
e 4 37
e 4 38
e 4 39
e 4 40
e 4 42
e 4 43
e 4 44
e 4 45
e 4 46
e 4 48
e 4 49
e 4 50
e 4 51
e 4 52
e 4 53
e 4 54
e 4 56
e 4 57
e 4 58
e 4 59
e 4 61
e 4 63
e 4 70
e 4 84
e 4 89
e 5 6
e 5 7
e 5 8
e 5 9
e 5 10
e 5 11
e 5 12
e 5 13
e 5 14
e 5 15
e 5 16
e 5 17
e 5 18
e 5 19
e 5 20
e 5 21
e 5 22
e 5 23
e 5 24
e 5 25
e 5 26
e 5 27
e 5 28
e 5 30
e 5 31
e 5 32
e 5 33
e 5 34
e 5 35
e 5 36
e 5 37
e 5 38
e 5 39
e 5 40
e 5 41
e 5 42
e 5 43
e 5 44
e 5 45
e 5 46
e 5 47
e 5 48
e 5 49
e 5 52
e 5 53
e 5 54
e 5 55
e 5 56
e 5 57
e 5 58
e 5 59
e 5 75
e 5 82
e 5 86
e 5 87
e 5 97
e 5 99
e 6 7
e 6 8
e 6 9
e 6 10
e 6 11
e 6 14
e 6 16
e 6 17
e 6 18
e 6 19
e 6 20
e 6 21
e 6 22
e 6 24
e 6 25
e 6 26
e 6 28
e 6 29
e 6 30
e 6 31
e 6 33
e 6 34
e 6 36
e 6 37
e 6 38
e 6 40
e 6 41
e 6 43
e 6 44
e 6 45
e 6 47
e 6 48
e 6 49
e 6 50
e 6 51
e 6 52
e 6 53
e 6 54
e 6 55
e 6 56
e 6 58
e 6 59
e 6 63
e 6 68
e 6 77
e 6 78
e 6 85
e 6 87
e 6 89
e 6 95
e 6 96
e 6 97
e 6 100
e 7 8
e 7 9
e 7 10
e 7 11
e 7 12
e 7 13
e 7 14
e 7 15
e 7 16
e 7 17
e 7 18
e 7 19
e 7 20
e 7 21
e 7 22
e 7 23
e 7 25
e 7 26
e 7 27
e 7 28
e 7 29
e 7 30
e 7 31
e 7 32
e 7 33
e 7 34
e 7 35
e 7 36
e 7 37
e 7 38
e 7 39
e 7 40
e 7 41
e 7 42
e 7 43
e 7 44
e 7 45
e 7 46
e 7 47
e 7 48
e 7 49
e 7 50
e 7 51
e 7 52
e 7 53
e 7 54
e 7 55
e 7 56
e 7 57
e 7 58
e 7 59
e 7 66
e 7 67
e 7 76
e 7 89
e 7 94
e 7 96
e 8 10
e 8 11
e 8 12
e 8 13
e 8 14
e 8 15
e 8 18
e 8 19
e 8 20
e 8 21
e 8 22
e 8 23
e 8 24
e 8 25
e 8 26
e 8 27
e 8 28
e 8 29
e 8 30
e 8 31
e 8 32
e 8 33
e 8 34
e 8 35
e 8 36
e 8 37
e 8 38
e 8 39
e 8 40
e 8 41
e 8 42
e 8 43
e 8 44
e 8 47
e 8 49
e 8 50
e 8 51
e 8 52
e 8 53
e 8 54
e 8 55
e 8 56
e 8 57
e 8 58
e 8 59
e 8 60
e 8 62
e 8 67
e 8 69
e 8 70
e 8 72
e 8 75
e 8 82
e 8 84
e 8 85
e 8 87
e 8 91
e 8 92
e 8 93
e 8 98
e 8 100
e 9 10
e 9 11
e 9 13
e 9 14
e 9 15
e 9 16
e 9 17
e 9 18
e 9 19
e 9 20
e 9 21
e 9 22
e 9 23
e 9 24
e 9 25
e 9 26
e 9 27
e 9 28
e 9 29
e 9 30
e 9 31
e 9 32
e 9 33
e 9 34
e 9 35
e 9 36
e 9 37
e 9 39
e 9 40
e 9 41
e 9 42
e 9 44
e 9 45
e 9 46
e 9 47
e 9 48
e 9 49
e 9 50
e 9 52
e 9 53
e 9 55
e 9 56
e 9 57
e 9 58
e 9 59
e 9 69
e 9 75
e 9 78
e 9 84
e 9 85
e 9 90
e 9 95
e 9 98
e 10 11
e 10 12
e 10 13
e 10 14
e 10 15
e 10 17
e 10 18
e 10 19
e 10 20
e 10 21
e 10 22
e 10 23
e 10 24
e 10 25
e 10 26
e 10 28
e 10 29
e 10 30
e 10 31
e 10 32
e 10 33
e 10 34
e 10 35
e 10 36
e 10 37
e 10 39
e 10 40
e 10 41
e 10 42
e 10 43
e 10 44
e 10 46
e 10 47
e 10 48
e 10 49
e 10 50
e 10 51
e 10 52
e 10 53
e 10 56
e 10 57
e 10 58
e 10 59
e 10 66
e 10 68
e 10 70
e 10 75
e 10 79
e 10 85
e 10 86
e 10 88
e 10 90
e 10 92
e 11 13
e 11 14
e 11 15
e 11 16
e 11 18
e 11 19
e 11 20
e 11 22
e 11 23
e 11 24
e 11 25
e 11 27
e 11 28
e 11 29
e 11 30
e 11 32
e 11 34
e 11 35
e 11 36
e 11 37
e 11 38
e 11 39
e 11 40
e 11 42
e 11 43
e 11 44
e 11 45
e 11 46
e 11 47
e 11 48
e 11 49
e 11 50
e 11 51
e 11 52
e 11 53
e 11 54
e 11 55
e 11 56
e 11 57
e 11 58
e 11 64
e 11 66
e 11 68
e 11 77
e 11 80
e 11 82
e 11 83
e 11 87
e 12 13
e 12 14
e 12 15
e 12 16
e 12 17
e 12 18
e 12 19
e 12 20
e 12 21
e 12 22
e 12 23
e 12 25
e 12 26
e 12 27
e 12 28
e 12 29
e 12 30
e 12 31
e 12 32
e 12 33
e 12 34
e 12 35
e 12 36
e 12 37
e 12 38
e 12 39
e 12 40
e 12 41
e 12 42
e 12 43
e 12 45
e 12 46
e 12 47
e 12 48
e 12 50
e 12 51
e 12 53
e 12 54
e 12 55
e 12 57
e 12 58
e 12 61
e 12 65
e 12 66
e 12 68
e 12 69
e 12 72
e 12 73
e 12 77
e 12 78
e 12 84
e 12 94
e 12 98
e 13 14
e 13 15
e 13 16
e 13 17
e 13 18
e 13 19
e 13 20
e 13 21
e 13 22
e 13 23
e 13 24
e 13 25
e 13 27
e 13 28
e 13 29
e 13 30
e 13 31
e 13 33
e 13 34
e 13 35
e 13 36
e 13 38
e 13 39
e 13 40
e 13 41
e 13 42
e 13 43
e 13 44
e 13 45
e 13 46
e 13 47
e 13 48
e 13 49
e 13 50
e 13 51
e 13 52
e 13 53
e 13 54
e 13 56
e 13 57
e 13 58
e 13 59
e 13 60
e 13 61
e 13 63
e 13 66
e 13 67
e 13 70
e 13 72
e 13 79
e 13 82
e 13 83
e 13 84
e 13 98
e 13 100
e 14 15
e 14 17
e 14 20
e 14 21
e 14 22
e 14 23
e 14 24
e 14 26
e 14 28
e 14 29
e 14 30
e 14 31
e 14 32
e 14 33
e 14 34
e 14 35
e 14 36
e 14 38
e 14 39
e 14 40
e 14 41
e 14 42
e 14 43
e 14 44
e 14 45
e 14 46
e 14 47
e 14 48
e 14 51
e 14 52
e 14 53
e 14 54
e 14 55
e 14 56
e 14 57
e 14 58
e 14 59
e 14 61
e 14 64
e 14 67
e 14 71
e 14 72
e 14 76
e 14 77
e 14 81
e 14 82
e 14 93
e 14 94
e 14 98
e 15 16
e 15 17
e 15 18
e 15 19
e 15 20
e 15 22
e 15 23
e 15 24
e 15 25
e 15 26
e 15 27
e 15 28
e 15 29
e 15 31
e 15 32
e 15 33
e 15 34
e 15 35
e 15 36
e 15 37
e 15 38
e 15 39
e 15 40
e 15 41
e 15 42
e 15 43
e 15 44
e 15 45
e 15 46
e 15 47
e 15 48
e 15 49
e 15 50
e 15 52
e 15 53
e 15 54
e 15 55
e 15 56
e 15 57
e 15 60
e 15 64
e 15 71
e 15 75
e 15 79
e 15 81
e 15 82
e 15 88
e 16 17
e 16 18
e 16 19
e 16 20
e 16 21
e 16 23
e 16 25
e 16 26
e 16 27
e 16 28
e 16 29
e 16 31
e 16 32
e 16 33
e 16 34
e 16 35
e 16 36
e 16 37
e 16 38
e 16 39
e 16 40
e 16 41
e 16 42
e 16 43
e 16 44
e 16 45
e 16 46
e 16 47
e 16 48
e 16 49
e 16 50
e 16 51
e 16 52
e 16 53
e 16 54
e 16 56
e 16 57
e 16 58
e 16 60
e 16 62
e 16 63
e 16 65
e 16 66
e 16 75
e 16 79
e 16 82
e 16 84
e 16 87
e 16 92
e 16 95
e 16 96
e 16 98
e 17 18
e 17 19
e 17 20
e 17 22
e 17 23
e 17 24
e 17 25
e 17 27
e 17 28
e 17 29
e 17 30
e 17 31
e 17 32
e 17 34
e 17 35
e 17 37
e 17 38
e 17 39
e 17 40
e 17 41
e 17 42
e 17 43
e 17 44
e 17 45
e 17 46
e 17 47
e 17 48
e 17 49
e 17 50
e 17 51
e 17 52
e 17 53
e 17 54
e 17 55
e 17 56
e 17 57
e 17 58
e 17 64
e 17 66
e 17 68
e 17 78
e 17 79
e 17 81
e 17 88
e 17 92
e 17 93
e 17 94
e 17 95
e 17 98
e 18 19
e 18 20
e 18 21
e 18 22
e 18 23
e 18 24
e 18 25
e 18 26
e 18 27
e 18 28
e 18 29
e 18 30
e 18 31
e 18 32
e 18 33
e 18 34
e 18 35
e 18 36
e 18 37
e 18 38
e 18 39
e 18 40
e 18 41
e 18 42
e 18 43
e 18 44
e 18 45
e 18 46
e 18 47
e 18 48
e 18 49
e 18 50
e 18 51
e 18 52
e 18 53
e 18 54
e 18 56
e 18 58
e 18 59
e 18 62
e 18 69
e 18 70
e 18 74
e 18 76
e 18 79
e 18 85
e 18 91
e 18 92
e 18 98
e 19 21
e 19 22
e 19 23
e 19 25
e 19 26
e 19 27
e 19 28
e 19 29
e 19 30
e 19 31
e 19 32
e 19 33
e 19 34
e 19 35
e 19 36
e 19 37
e 19 38
e 19 39
e 19 40
e 19 41
e 19 43
e 19 44
e 19 45
e 19 46
e 19 48
e 19 49
e 19 50
e 19 51
e 19 52
e 19 54
e 19 55
e 19 56
e 19 57
e 19 58
e 19 59
e 19 63
e 19 67
e 19 69
e 19 72
e 19 80
e 19 83
e 19 91
e 19 92
e 19 95
e 20 21
e 20 22
e 20 23
e 20 24
e 20 25
e 20 26
e 20 27
e 20 28
e 20 29
e 20 30
e 20 31
e 20 32
e 20 33
e 20 34
e 20 35
e 20 36
e 20 37
e 20 38
e 20 39
e 20 41
e 20 42
e 20 43
e 20 44
e 20 45
e 20 46
e 20 47
e 20 48
e 20 49
e 20 50
e 20 51
e 20 52
e 20 53
e 20 55
e 20 56
e 20 57
e 20 58
e 20 60
e 20 61
e 20 65
e 20 70
e 20 73
e 20 74
e 20 75
e 20 76
e 20 79
e 20 83
e 20 86
e 20 89
e 20 90
e 20 92
e 20 93
e 20 98
e 21 22
e 21 24
e 21 25
e 21 26
e 21 28
e 21 29
e 21 30
e 21 31
e 21 34
e 21 36
e 21 37
e 21 38
e 21 39
e 21 40
e 21 41
e 21 42
e 21 43
e 21 44
e 21 45
e 21 46
e 21 47
e 21 48
e 21 49
e 21 50
e 21 51
e 21 52
e 21 54
e 21 55
e 21 56
e 21 58
e 21 59
e 21 61
e 21 62
e 21 68
e 21 71
e 21 75
e 21 79
e 21 80
e 21 81
e 21 87
e 21 89
e 21 90
e 21 95
e 21 99
e 22 23
e 22 25
e 22 26
e 22 27
e 22 28
e 22 29
e 22 30
e 22 31
e 22 33
e 22 34
e 22 35
e 22 36
e 22 37
e 22 39
e 22 40
e 22 41
e 22 42
e 22 43
e 22 44
e 22 46
e 22 47
e 22 48
e 22 49
e 22 51
e 22 52
e 22 53
e 22 54
e 22 55
e 22 56
e 22 58
e 22 59
e 22 62
e 22 63
e 22 64
e 22 65
e 22 67
e 22 75
e 22 81
e 22 82
e 22 84
e 22 85
e 22 96
e 22 98
e 23 24
e 23 25
e 23 26
e 23 27
e 23 29
e 23 30
e 23 31
e 23 32
e 23 33
e 23 34
e 23 35
e 23 36
e 23 37
e 23 38
e 23 39
e 23 40
e 23 41
e 23 42
e 23 43
e 23 45
e 23 46
e 23 47
e 23 49
e 23 50
e 23 51
e 23 52
e 23 53
e 23 54
e 23 55
e 23 57
e 23 58
e 23 59
e 23 61
e 23 64
e 23 75
e 23 76
e 23 81
e 23 82
e 23 84
e 23 85
e 23 89
e 23 97
e 23 99
e 24 25
e 24 26
e 24 27
e 24 28
e 24 30
e 24 31
e 24 32
e 24 33
e 24 34
e 24 35
e 24 36
e 24 37
e 24 38
e 24 39
e 24 40
e 24 41
e 24 42
e 24 43
e 24 44
e 24 45
e 24 46
e 24 47
e 24 48
e 24 49
e 24 50
e 24 51
e 24 52
e 24 53
e 24 54
e 24 55
e 24 56
e 24 57
e 24 58
e 24 59
e 24 60
e 24 62
e 24 68
e 24 72
e 24 75
e 24 76
e 24 78
e 24 81
e 24 87
e 24 88
e 24 96
e 24 100
e 25 26
e 25 27
e 25 28
e 25 29
e 25 30
e 25 31
e 25 32
e 25 33
e 25 34
e 25 35
e 25 36
e 25 37
e 25 39
e 25 40
e 25 41
e 25 42
e 25 44
e 25 45
e 25 46
e 25 47
e 25 49
e 25 50
e 25 51
e 25 52
e 25 53
e 25 54
e 25 55
e 25 56
e 25 57
e 25 58
e 25 63
e 25 73
e 25 74
e 25 76
e 25 78
e 25 84
e 25 86
e 25 87
e 25 90
e 25 93
e 25 95
e 25 99
e 26 27
e 26 28
e 26 30
e 26 31
e 26 32
e 26 33
e 26 34
e 26 35
e 26 37
e 26 38
e 26 39
e 26 40
e 26 42
e 26 43
e 26 44
e 26 45
e 26 46
e 26 47
e 26 48
e 26 49
e 26 50
e 26 51
e 26 52
e 26 53
e 26 54
e 26 55
e 26 56
e 26 58
e 26 59
e 26 63
e 26 71
e 26 75
e 26 76
e 26 79
e 26 83
e 26 84
e 26 88
e 26 91
e 26 94
e 26 95
e 26 96
e 26 100
e 27 28
e 27 29
e 27 30
e 27 31
e 27 32
e 27 33
e 27 34
e 27 35
e 27 36
e 27 37
e 27 38
e 27 39
e 27 40
e 27 41
e 27 42
e 27 43
e 27 44
e 27 45
e 27 46
e 27 47
e 27 48
e 27 49
e 27 51
e 27 53
e 27 54
e 27 55
e 27 56
e 27 57
e 27 58
e 27 59
e 27 63
e 27 79
e 27 81
e 27 85
e 27 88
e 27 89
e 27 92
e 27 94
e 27 95
e 27 98
e 27 100
e 28 30
e 28 31
e 28 32
e 28 33
e 28 35
e 28 36
e 28 37
e 28 38
e 28 39
e 28 40
e 28 41
e 28 42
e 28 43
e 28 44
e 28 46
e 28 47
e 28 49
e 28 50
e 28 51
e 28 52
e 28 53
e 28 54
e 28 55
e 28 56
e 28 57
e 28 58
e 28 59
e 28 61
e 28 62
e 28 63
e 28 67
e 28 72
e 28 73
e 28 75
e 28 78
e 28 79
e 28 82
e 28 88
e 28 89
e 28 95
e 29 30
e 29 31
e 29 32
e 29 33
e 29 34
e 29 35
e 29 36
e 29 37
e 29 39
e 29 40
e 29 41
e 29 42
e 29 43
e 29 44
e 29 45
e 29 48
e 29 49
e 29 50
e 29 51
e 29 52
e 29 53
e 29 54
e 29 55
e 29 56
e 29 57
e 29 58
e 29 60
e 29 65
e 29 70
e 29 71
e 29 74
e 29 80
e 29 81
e 29 82
e 29 83
e 29 85
e 29 91
e 29 92
e 29 95
e 29 100
e 30 31
e 30 32
e 30 33
e 30 34
e 30 35
e 30 36
e 30 37
e 30 38
e 30 39
e 30 40
e 30 41
e 30 42
e 30 43
e 30 44
e 30 45
e 30 46
e 30 47
e 30 48
e 30 49
e 30 50
e 30 51
e 30 52
e 30 53
e 30 54
e 30 55
e 30 56
e 30 57
e 30 58
e 30 59
e 30 67
e 30 78
e 30 82
e 30 87
e 30 88
e 30 96
e 30 97
e 30 98
e 31 32
e 31 33
e 31 34
e 31 35
e 31 36
e 31 37
e 31 38
e 31 39
e 31 40
e 31 41
e 31 42
e 31 44
e 31 45
e 31 46
e 31 47
e 31 48
e 31 49
e 31 50
e 31 51
e 31 52
e 31 53
e 31 54
e 31 55
e 31 56
e 31 57
e 31 58
e 31 59
e 31 64
e 31 65
e 31 67
e 31 69
e 31 70
e 31 72
e 31 73
e 31 74
e 31 83
e 31 85
e 31 87
e 31 89
e 31 92
e 31 94
e 31 97
e 31 99
e 31 100
e 32 33
e 32 34
e 32 35
e 32 36
e 32 37
e 32 38
e 32 39
e 32 40
e 32 41
e 32 42
e 32 43
e 32 44
e 32 45
e 32 46
e 32 47
e 32 48
e 32 49
e 32 50
e 32 51
e 32 52
e 32 53
e 32 54
e 32 55
e 32 56
e 32 57
e 32 58
e 32 59
e 32 64
e 32 66
e 32 68
e 32 71
e 32 74
e 32 75
e 32 76
e 32 78
e 32 88
e 32 89
e 32 90
e 32 94
e 32 95
e 32 97
e 32 99
e 32 100
e 33 34
e 33 35
e 33 36
e 33 37
e 33 38
e 33 39
e 33 40
e 33 41
e 33 42
e 33 43
e 33 44
e 33 45
e 33 46
e 33 47
e 33 50
e 33 52
e 33 53
e 33 54
e 33 55
e 33 56
e 33 57
e 33 58
e 33 59
e 33 64
e 33 65
e 33 71
e 33 72
e 33 78
e 33 79
e 33 80
e 33 83
e 33 90
e 33 95
e 33 98
e 33 99
e 34 35
e 34 36
e 34 37
e 34 38
e 34 39
e 34 40
e 34 41
e 34 43
e 34 44
e 34 45
e 34 46
e 34 47
e 34 49
e 34 50
e 34 51
e 34 52
e 34 53
e 34 54
e 34 55
e 34 56
e 34 57
e 34 58
e 34 60
e 34 62
e 34 65
e 34 71
e 34 73
e 34 75
e 34 76
e 34 83
e 34 86
e 34 87
e 34 97
e 34 98
e 35 37
e 35 39
e 35 41
e 35 42
e 35 43
e 35 44
e 35 45
e 35 46
e 35 47
e 35 48
e 35 49
e 35 50
e 35 51
e 35 52
e 35 54
e 35 55
e 35 56
e 35 57
e 35 58
e 35 59
e 35 60
e 35 61
e 35 63
e 35 66
e 35 69
e 35 83
e 35 85
e 35 87
e 35 90
e 35 91
e 35 92
e 35 93
e 35 97
e 35 98
e 36 37
e 36 38
e 36 39
e 36 40
e 36 41
e 36 42
e 36 43
e 36 44
e 36 45
e 36 46
e 36 48
e 36 49
e 36 50
e 36 51
e 36 52
e 36 53
e 36 54
e 36 55
e 36 56
e 36 57
e 36 58
e 36 59
e 36 61
e 36 62
e 36 63
e 36 69
e 36 72
e 36 73
e 36 77
e 36 78
e 36 80
e 36 86
e 36 87
e 36 95
e 36 98
e 37 38
e 37 39
e 37 40
e 37 41
e 37 42
e 37 43
e 37 44
e 37 45
e 37 46
e 37 47
e 37 48
e 37 49
e 37 50
e 37 51
e 37 52
e 37 53
e 37 54
e 37 55
e 37 56
e 37 57
e 37 58
e 37 69
e 37 76
e 37 79
e 37 86
e 37 93
e 37 95
e 37 98
e 37 99
e 38 39
e 38 40
e 38 41
e 38 42
e 38 43
e 38 44
e 38 46
e 38 47
e 38 48
e 38 49
e 38 50
e 38 51
e 38 52
e 38 53
e 38 54
e 38 55
e 38 56
e 38 57
e 38 58
e 38 59
e 38 60
e 38 63
e 38 67
e 38 68
e 38 73
e 38 76
e 38 81
e 38 82
e 38 85
e 38 88
e 38 89
e 38 91
e 38 94
e 38 96
e 39 40
e 39 41
e 39 42
e 39 43
e 39 44
e 39 45
e 39 47
e 39 48
e 39 49
e 39 50
e 39 51
e 39 52
e 39 53
e 39 54
e 39 55
e 39 56
e 39 57
e 39 58
e 39 59
e 39 63
e 39 65
e 39 66
e 39 68
e 39 74
e 39 80
e 39 90
e 40 41
e 40 42
e 40 43
e 40 44
e 40 45
e 40 46
e 40 47
e 40 48
e 40 49
e 40 50
e 40 51
e 40 52
e 40 53
e 40 55
e 40 58
e 40 59
e 40 62
e 40 66
e 40 67
e 40 69
e 40 70
e 40 73
e 40 76
e 40 78
e 40 81
e 40 82
e 40 93
e 40 97
e 41 42
e 41 43
e 41 44
e 41 45
e 41 46
e 41 47
e 41 48
e 41 49
e 41 50
e 41 51
e 41 52
e 41 53
e 41 54
e 41 55
e 41 56
e 41 58
e 41 73
e 41 82
e 41 83
e 41 84
e 41 87
e 41 93
e 41 97
e 41 99
e 42 43
e 42 44
e 42 45
e 42 46
e 42 47
e 42 48
e 42 49
e 42 50
e 42 51
e 42 52
e 42 53
e 42 54
e 42 56
e 42 57
e 42 59
e 42 68
e 42 70
e 42 77
e 42 78
e 42 82
e 42 95
e 42 98
e 42 100
e 43 44
e 43 45
e 43 46
e 43 47
e 43 49
e 43 50
e 43 51
e 43 52
e 43 53
e 43 54
e 43 55
e 43 56
e 43 57
e 43 58
e 43 59
e 43 65
e 43 72
e 43 77
e 43 82
e 43 85
e 43 88
e 43 96
e 43 100
e 44 45
e 44 46
e 44 48
e 44 49
e 44 50
e 44 51
e 44 52
e 44 53
e 44 54
e 44 55
e 44 56
e 44 57
e 44 58
e 44 59
e 44 64
e 44 66
e 44 67
e 44 77
e 44 81
e 44 84
e 44 85
e 44 87
e 44 88
e 45 47
e 45 48
e 45 49
e 45 50
e 45 51
e 45 52
e 45 53
e 45 54
e 45 55
e 45 56
e 45 57
e 45 59
e 45 60
e 45 66
e 45 67
e 45 68
e 45 74
e 45 75
e 45 86
e 45 88
e 45 92
e 45 94
e 46 47
e 46 48
e 46 49
e 46 50
e 46 51
e 46 52
e 46 54
e 46 55
e 46 56
e 46 57
e 46 58
e 46 59
e 46 61
e 46 68
e 46 75
e 46 76
e 46 77
e 46 79
e 46 83
e 46 86
e 46 87
e 46 90
e 46 92
e 46 93
e 46 94
e 46 98
e 46 99
e 47 48
e 47 49
e 47 50
e 47 51
e 47 52
e 47 53
e 47 54
e 47 56
e 47 58
e 47 59
e 47 60
e 47 63
e 47 65
e 47 66
e 47 68
e 47 69
e 47 75
e 47 78
e 47 80
e 47 82
e 47 88
e 47 90
e 47 91
e 47 95
e 47 98
e 48 49
e 48 51
e 48 52
e 48 53
e 48 54
e 48 55
e 48 56
e 48 59
e 48 72
e 48 84
e 48 85
e 48 87
e 48 88
e 48 90
e 48 91
e 48 92
e 48 93
e 48 95
e 48 100
e 49 50
e 49 51
e 49 52
e 49 54
e 49 56
e 49 57
e 49 58
e 49 63
e 49 66
e 49 70
e 49 75
e 49 77
e 49 82
e 49 93
e 49 94
e 49 99
e 49 100
e 50 51
e 50 52
e 50 53
e 50 55
e 50 57
e 50 58
e 50 59
e 50 62
e 50 72
e 50 77
e 50 78
e 50 83
e 50 85
e 50 87
e 50 88
e 50 92
e 50 96
e 50 99
e 51 52
e 51 53
e 51 54
e 51 55
e 51 56
e 51 57
e 51 58
e 51 59
e 51 61
e 51 68
e 51 72
e 51 76
e 51 78
e 51 79
e 51 82
e 51 93
e 51 96
e 52 53
e 52 54
e 52 56
e 52 57
e 52 59
e 52 65
e 52 66
e 52 67
e 52 71
e 52 73
e 52 75
e 52 78
e 52 82
e 52 88
e 52 89
e 53 55
e 53 57
e 53 58
e 53 59
e 53 63
e 53 68
e 53 69
e 53 72
e 53 74
e 53 77
e 53 79
e 53 82
e 53 94
e 54 56
e 54 57
e 54 58
e 54 59
e 54 60
e 54 65
e 54 69
e 54 70
e 54 80
e 54 86
e 54 87
e 54 97
e 54 98
e 54 100
e 55 56
e 55 57
e 55 58
e 55 59
e 55 60
e 55 70
e 55 71
e 55 77
e 55 80
e 55 91
e 55 100
e 56 57
e 56 58
e 56 59
e 56 60
e 56 67
e 56 69
e 56 71
e 56 74
e 56 81
e 56 82
e 56 83
e 56 84
e 56 89
e 56 93
e 56 94
e 56 95
e 56 96
e 56 100
e 57 58
e 57 59
e 57 61
e 57 63
e 57 65
e 57 67
e 57 70
e 57 72
e 57 78
e 57 81
e 57 83
e 57 88
e 57 89
e 57 92
e 57 93
e 57 95
e 57 96
e 58 59
e 58 68
e 58 70
e 58 84
e 58 92
e 58 97
e 58 98
e 59 66
e 59 69
e 59 87
e 59 89
e 59 91
e 59 98
e 59 100
e 60 61
e 60 62
e 60 63
e 60 64
e 60 65
e 60 66
e 60 67
e 60 68
e 60 69
e 60 72
e 60 73
e 60 74
e 60 75
e 60 76
e 60 77
e 60 78
e 60 79
e 60 80
e 60 81
e 60 82
e 60 83
e 60 84
e 60 85
e 60 86
e 60 87
e 60 88
e 60 89
e 60 90
e 60 91
e 60 92
e 60 93
e 60 94
e 60 95
e 60 96
e 60 97
e 60 98
e 61 62
e 61 63
e 61 64
e 61 65
e 61 66
e 61 67
e 61 68
e 61 69
e 61 72
e 61 73
e 61 74
e 61 75
e 61 76
e 61 77
e 61 78
e 61 79
e 61 80
e 61 81
e 61 82
e 61 83
e 61 84
e 61 85
e 61 86
e 61 87
e 61 88
e 61 89
e 61 90
e 61 91
e 61 92
e 61 93
e 61 94
e 61 95
e 61 96
e 61 97
e 61 98
e 61 99
e 61 100
e 62 63
e 62 64
e 62 66
e 62 67
e 62 68
e 62 70
e 62 71
e 62 72
e 62 73
e 62 74
e 62 75
e 62 76
e 62 77
e 62 79
e 62 80
e 62 81
e 62 82
e 62 84
e 62 87
e 62 88
e 62 89
e 62 90
e 62 91
e 62 92
e 62 93
e 62 94
e 62 96
e 62 97
e 62 98
e 62 99
e 62 100
e 63 64
e 63 66
e 63 67
e 63 68
e 63 69
e 63 70
e 63 71
e 63 72
e 63 73
e 63 74
e 63 75
e 63 76
e 63 77
e 63 78
e 63 79
e 63 80
e 63 81
e 63 82
e 63 83
e 63 84
e 63 85
e 63 86
e 63 87
e 63 88
e 63 89
e 63 90
e 63 91
e 63 92
e 63 93
e 63 94
e 63 95
e 63 96
e 63 97
e 63 98
e 63 99
e 63 100
e 64 65
e 64 66
e 64 67
e 64 68
e 64 69
e 64 70
e 64 71
e 64 73
e 64 74
e 64 75
e 64 76
e 64 77
e 64 80
e 64 81
e 64 82
e 64 83
e 64 84
e 64 85
e 64 86
e 64 87
e 64 88
e 64 89
e 64 90
e 64 91
e 64 92
e 64 93
e 64 94
e 64 95
e 64 96
e 64 97
e 64 98
e 64 100
e 65 66
e 65 68
e 65 69
e 65 70
e 65 71
e 65 72
e 65 73
e 65 74
e 65 75
e 65 76
e 65 77
e 65 78
e 65 79
e 65 80
e 65 81
e 65 82
e 65 83
e 65 84
e 65 85
e 65 86
e 65 87
e 65 88
e 65 89
e 65 90
e 65 91
e 65 92
e 65 93
e 65 94
e 65 95
e 65 96
e 65 97
e 65 98
e 65 99
e 65 100
e 66 67
e 66 68
e 66 69
e 66 70
e 66 71
e 66 72
e 66 73
e 66 74
e 66 75
e 66 76
e 66 77
e 66 78
e 66 79
e 66 81
e 66 82
e 66 83
e 66 84
e 66 85
e 66 86
e 66 87
e 66 88
e 66 89
e 66 90
e 66 92
e 66 93
e 66 95
e 66 96
e 66 97
e 66 98
e 66 99
e 66 100
e 67 68
e 67 69
e 67 70
e 67 71
e 67 72
e 67 73
e 67 74
e 67 75
e 67 77
e 67 79
e 67 80
e 67 81
e 67 82
e 67 83
e 67 84
e 67 85
e 67 86
e 67 87
e 67 89
e 67 90
e 67 91
e 67 92
e 67 93
e 67 94
e 67 95
e 67 96
e 67 98
e 67 99
e 67 100
e 68 69
e 68 71
e 68 72
e 68 73
e 68 74
e 68 75
e 68 76
e 68 77
e 68 78
e 68 79
e 68 80
e 68 81
e 68 82
e 68 83
e 68 84
e 68 85
e 68 86
e 68 88
e 68 89
e 68 90
e 68 91
e 68 92
e 68 93
e 68 94
e 68 96
e 68 97
e 68 98
e 68 99
e 68 100
e 69 70
e 69 71
e 69 72
e 69 73
e 69 74
e 69 75
e 69 78
e 69 79
e 69 80
e 69 81
e 69 82
e 69 83
e 69 85
e 69 86
e 69 87
e 69 88
e 69 89
e 69 90
e 69 91
e 69 92
e 69 93
e 69 94
e 69 95
e 69 96
e 69 97
e 69 98
e 69 99
e 69 100
e 70 71
e 70 72
e 70 73
e 70 74
e 70 75
e 70 76
e 70 77
e 70 78
e 70 79
e 70 80
e 70 81
e 70 82
e 70 83
e 70 84
e 70 85
e 70 86
e 70 87
e 70 88
e 70 89
e 70 90
e 70 91
e 70 93
e 70 94
e 70 95
e 70 98
e 70 99
e 70 100
e 71 72
e 71 73
e 71 74
e 71 75
e 71 76
e 71 77
e 71 78
e 71 79
e 71 80
e 71 81
e 71 82
e 71 83
e 71 84
e 71 85
e 71 86
e 71 87
e 71 88
e 71 89
e 71 90
e 71 92
e 71 93
e 71 94
e 71 96
e 71 97
e 71 98
e 71 99
e 71 100
e 72 73
e 72 74
e 72 75
e 72 76
e 72 77
e 72 78
e 72 79
e 72 80
e 72 81
e 72 83
e 72 84
e 72 85
e 72 86
e 72 87
e 72 88
e 72 89
e 72 91
e 72 92
e 72 93
e 72 94
e 72 95
e 72 96
e 72 97
e 72 98
e 72 99
e 72 100
e 73 74
e 73 76
e 73 77
e 73 78
e 73 79
e 73 80
e 73 81
e 73 82
e 73 83
e 73 84
e 73 85
e 73 86
e 73 87
e 73 88
e 73 89
e 73 90
e 73 91
e 73 92
e 73 93
e 73 94
e 73 95
e 73 96
e 73 97
e 73 98
e 73 99
e 73 100
e 74 75
e 74 76
e 74 77
e 74 78
e 74 79
e 74 80
e 74 81
e 74 82
e 74 83
e 74 85
e 74 86
e 74 87
e 74 88
e 74 89
e 74 90
e 74 91
e 74 93
e 74 95
e 74 96
e 74 97
e 74 98
e 74 100
e 75 76
e 75 77
e 75 78
e 75 79
e 75 80
e 75 81
e 75 82
e 75 83
e 75 84
e 75 85
e 75 86
e 75 87
e 75 88
e 75 89
e 75 90
e 75 91
e 75 93
e 75 95
e 75 96
e 75 97
e 75 98
e 75 99
e 75 100
e 76 77
e 76 78
e 76 79
e 76 80
e 76 81
e 76 82
e 76 83
e 76 84
e 76 85
e 76 86
e 76 89
e 76 90
e 76 91
e 76 92
e 76 93
e 76 94
e 76 96
e 76 97
e 76 98
e 76 99
e 76 100
e 77 78
e 77 79
e 77 80
e 77 81
e 77 82
e 77 83
e 77 84
e 77 87
e 77 88
e 77 89
e 77 90
e 77 91
e 77 92
e 77 93
e 77 94
e 77 95
e 77 96
e 77 98
e 77 99
e 77 100
e 78 79
e 78 80
e 78 81
e 78 82
e 78 83
e 78 84
e 78 85
e 78 86
e 78 87
e 78 88
e 78 89
e 78 90
e 78 92
e 78 93
e 78 94
e 78 95
e 78 96
e 78 97
e 78 98
e 78 99
e 78 100
e 79 80
e 79 81
e 79 82
e 79 83
e 79 84
e 79 85
e 79 88
e 79 89
e 79 90
e 79 91
e 79 92
e 79 93
e 79 94
e 79 96
e 79 97
e 79 98
e 79 99
e 79 100
e 80 81
e 80 82
e 80 83
e 80 84
e 80 85
e 80 86
e 80 87
e 80 88
e 80 89
e 80 90
e 80 91
e 80 92
e 80 93
e 80 94
e 80 95
e 80 97
e 80 98
e 80 99
e 80 100
e 81 84
e 81 85
e 81 86
e 81 87
e 81 90
e 81 92
e 81 93
e 81 94
e 81 95
e 81 96
e 81 97
e 81 98
e 81 99
e 81 100
e 82 83
e 82 84
e 82 85
e 82 86
e 82 87
e 82 88
e 82 91
e 82 92
e 82 93
e 82 94
e 82 95
e 82 96
e 82 97
e 82 98
e 82 99
e 82 100
e 83 84
e 83 85
e 83 86
e 83 87
e 83 88
e 83 89
e 83 90
e 83 91
e 83 92
e 83 93
e 83 94
e 83 95
e 83 96
e 83 97
e 83 98
e 83 99
e 83 100
e 84 85
e 84 86
e 84 87
e 84 88
e 84 89
e 84 90
e 84 91
e 84 92
e 84 93
e 84 94
e 84 95
e 84 96
e 84 97
e 84 98
e 84 99
e 85 86
e 85 87
e 85 88
e 85 89
e 85 90
e 85 91
e 85 92
e 85 93
e 85 94
e 85 95
e 85 96
e 85 97
e 85 98
e 85 99
e 85 100
e 86 87
e 86 88
e 86 89
e 86 90
e 86 91
e 86 92
e 86 93
e 86 94
e 86 95
e 86 96
e 86 97
e 86 98
e 86 99
e 86 100
e 87 88
e 87 89
e 87 90
e 87 91
e 87 93
e 87 95
e 87 96
e 87 97
e 87 98
e 87 99
e 87 100
e 88 89
e 88 90
e 88 91
e 88 93
e 88 94
e 88 95
e 88 96
e 88 97
e 88 98
e 88 100
e 89 91
e 89 92
e 89 93
e 89 94
e 89 95
e 89 96
e 89 97
e 89 98
e 89 99
e 89 100
e 90 91
e 90 92
e 90 93
e 90 94
e 90 95
e 90 96
e 90 97
e 90 98
e 90 99
e 90 100
e 91 92
e 91 93
e 91 94
e 91 95
e 91 96
e 91 98
e 91 99
e 91 100
e 92 93
e 92 95
e 92 96
e 92 97
e 92 98
e 92 99
e 92 100
e 93 94
e 93 95
e 93 98
e 93 99
e 93 100
e 94 95
e 94 96
e 94 97
e 94 98
e 94 99
e 94 100
e 95 96
e 95 97
e 95 98
e 95 99
e 95 100
e 96 97
e 96 98
e 96 99
e 97 98
e 97 99
e 97 100
e 98 99
e 98 100
e 99 100
