MATILDA_Graphs/g0002.sol
SET_INDEX
305
340
606
704
892
970
1048
1430
1561
1706
1980
2142
2228
2419
2569
2676
2750
2827
2834
2958
3024
3268
3367
3407
EOF
